feasible solution found by trivial heuristic after 0.0 seconds, objective value 0.000000e+00
presolving:
   (0.0s) running MILP presolver
   (0.0s) MILP presolver found nothing
(round 1, exhaustive) 0 del vars, 0 del conss, 0 add conss, 0 chg bounds, 0 chg sides, 0 chg coeffs, 106 upgd conss, 0 impls, 100 clqs
   (0.0s) probing: 51/600 (8.5%) - 0 fixings, 0 aggregations, 0 implications, 0 bound changes
   (0.0s) probing aborted: 50/50 successive totally useless probings
   (0.0s) symmetry computation started: requiring (bin +, int -, cont +), (fixed: bin -, int +, cont -)
   (0.0s) symmetry computation finished: 20 generators found (max: 1500, log10 of symmetry group size: 6.5)
(round 2, exhaustive) 0 del vars, 0 del conss, 17 add conss, 0 chg bounds, 0 chg sides, 0 chg coeffs, 106 upgd conss, 0 impls, 100 clqs
presolving (3 rounds: 3 fast, 3 medium, 3 exhaustive):
 0 deleted vars, 0 deleted constraints, 17 added constraints, 0 tightened bounds, 0 added holes, 0 changed sides, 0 changed coefficients
 0 implications, 100 cliques
presolved problem has 600 variables (600 bin, 0 int, 0 impl, 0 cont) and 123 constraints
      6 constraints of type <knapsack>
    100 constraints of type <setppc>
     17 constraints of type <orbitope>
transformed objective value is always integral (scale: 1)
Presolving Time: 0.01
transformed 1/1 original solutions to the transformed problem space

 time | node  | left  |LP iter|LP it/n|mem/heur|mdpt |vars |cons |rows |cuts |sepa|confs|strbr|  dualbound   | primalbound  |  gap   | compl. 
p 0.0s|     1 |     0 |     0 |     - |  clique|   0 | 600 | 123 | 106 |   0 |  0 |   0 |   0 | 8.034000e+03 | 6.360000e+02 |1163.21%| unknown
p 0.0s|     1 |     0 |     0 |     - | vbounds|   0 | 600 | 123 | 106 |   0 |  0 |   0 |   0 | 8.034000e+03 | 6.440000e+02 |1147.52%| unknown
  0.0s|     1 |     0 |   167 |     - |    10M |   0 | 600 | 123 | 106 |   0 |  0 |   0 |   0 | 9.298421e+02 | 6.440000e+02 |  44.39%| unknown
r 0.0s|     1 |     0 |   167 |     - |rounding|   0 | 600 | 123 | 106 |   0 |  0 |   0 |   0 | 9.298421e+02 | 8.540000e+02 |   8.88%| unknown
r 0.0s|     1 |     0 |   167 |     - |shifting|   0 | 600 | 123 | 106 |   0 |  0 |   0 |   0 | 9.298421e+02 | 8.730000e+02 |   6.51%| unknown
i 0.0s|     1 |     0 |   167 |     - |  oneopt|   0 | 600 | 123 | 106 |   0 |  0 |   0 |   0 | 9.298421e+02 | 8.900000e+02 |   4.48%| unknown
  0.0s|     1 |     0 |   178 |     - |    10M |   0 | 600 | 123 | 112 |   6 |  1 |   0 |   0 | 9.298421e+02 | 8.900000e+02 |   4.48%| unknown
  0.1s|     1 |     0 |   200 |     - |    10M |   0 | 600 | 123 | 118 |  12 |  2 |   0 |   0 | 9.298421e+02 | 8.900000e+02 |   4.48%| unknown
  0.1s|     1 |     0 |   221 |     - |    11M |   0 | 600 | 123 | 124 |  18 |  3 |   0 |   0 | 9.298421e+02 | 8.900000e+02 |   4.48%| unknown
  0.1s|     1 |     0 |   227 |     - |    11M |   0 | 600 | 123 | 126 |  20 |  4 |   0 |   0 | 9.298421e+02 | 8.900000e+02 |   4.48%| unknown
  0.1s|     1 |     0 |   241 |     - |    13M |   0 | 600 | 123 | 127 |  21 |  5 |   0 |   0 | 9.296923e+02 | 8.900000e+02 |   4.46%| unknown
  0.1s|     1 |     0 |   253 |     - |    13M |   0 | 600 | 123 | 130 |  24 |  6 |   0 |   0 | 9.296923e+02 | 8.900000e+02 |   4.46%| unknown
  0.1s|     1 |     0 |   271 |     - |    14M |   0 | 600 | 123 | 136 |  30 |  7 |   0 |   0 | 9.296923e+02 | 8.900000e+02 |   4.46%| unknown
  0.2s|     1 |     0 |   283 |     - |    14M |   0 | 600 | 123 | 142 |  36 |  8 |   0 |   0 | 9.296923e+02 | 8.900000e+02 |   4.46%| unknown
  0.2s|     1 |     0 |   309 |     - |    17M |   0 | 600 | 123 | 148 |  42 |  9 |   0 |   0 | 9.296923e+02 | 8.900000e+02 |   4.46%| unknown
 time | node  | left  |LP iter|LP it/n|mem/heur|mdpt |vars |cons |rows |cuts |sepa|confs|strbr|  dualbound   | primalbound  |  gap   | compl. 
r 0.2s|     1 |     0 |   309 |     - |randroun|   0 | 600 | 123 | 148 |   0 |  9 |   0 |   0 | 9.296923e+02 | 8.930000e+02 |   4.11%| unknown
  0.3s|     1 |     0 |   323 |     - |    17M |   0 | 600 | 123 | 150 |  44 | 10 |   0 |   0 | 9.296923e+02 | 8.930000e+02 |   4.11%| unknown
i 0.3s|     1 |     0 |   323 |     - |  oneopt|   0 | 600 | 123 | 150 |  44 | 10 |   0 |   0 | 9.296923e+02 | 9.110000e+02 |   2.05%| unknown
  0.3s|     1 |     0 |   342 |     - |    17M |   0 | 600 | 123 | 156 |  50 | 11 |   0 |   0 | 9.296923e+02 | 9.110000e+02 |   2.05%| unknown
  0.3s|     1 |     0 |   358 |     - |    17M |   0 | 600 | 123 | 162 |  56 | 12 |   0 |   0 | 9.296923e+02 | 9.110000e+02 |   2.05%| unknown
  0.3s|     1 |     0 |   368 |     - |    17M |   0 | 600 | 123 | 166 |  60 | 13 |   0 |   0 | 9.296923e+02 | 9.110000e+02 |   2.05%| unknown
  0.3s|     1 |     0 |   381 |     - |    17M |   0 | 600 | 123 | 170 |  64 | 14 |   0 |   0 | 9.296923e+02 | 9.110000e+02 |   2.05%| unknown
  0.3s|     1 |     0 |   388 |     - |    17M |   0 | 600 | 123 | 170 |  67 | 15 |   0 |   0 | 9.296923e+02 | 9.110000e+02 |   2.05%| unknown
d 0.3s|     1 |     0 |   593 |     - |farkasdi|   0 | 600 | 123 | 170 |   0 | 15 |   0 |   0 | 9.296923e+02 | 9.150000e+02 |   1.61%| unknown
d 0.3s|     1 |     0 |   594 |     - |farkasdi|   0 | 600 | 123 | 170 |   0 | 15 |   0 |   0 | 9.296923e+02 | 9.170000e+02 |   1.38%| unknown
  0.4s|     1 |     0 |   597 |     - |    17M |   0 | 600 | 123 | 170 |  67 | 15 |   0 |   0 | 9.296923e+02 | 9.170000e+02 |   1.38%| unknown
  0.4s|     1 |     0 |   613 |     - |    17M |   0 | 600 | 123 | 176 |  73 | 16 |   0 |   0 | 9.296923e+02 | 9.170000e+02 |   1.38%| unknown
  0.4s|     1 |     0 |   627 |     - |    17M |   0 | 600 | 123 | 179 |  76 | 17 |   0 |   0 | 9.296923e+02 | 9.170000e+02 |   1.38%| unknown
  0.5s|     1 |     2 |   627 |     - |    17M |   0 | 600 | 123 | 179 |  76 | 17 |   0 |  43 | 9.296923e+02 | 9.170000e+02 |   1.38%| unknown
  1.4s|   100 |    97 |  1820 |  14.2 |    30M |  31 | 600 | 124 | 154 | 159 |  1 |   1 | 310 | 9.296923e+02 | 9.170000e+02 |   1.38%| unknown
 time | node  | left  |LP iter|LP it/n|mem/heur|mdpt |vars |cons |rows |cuts |sepa|confs|strbr|  dualbound   | primalbound  |  gap   | compl. 
  2.4s|   200 |   197 |  6367 |  29.9 |    36M |  34 | 600 | 126 | 155 | 204 |  1 |   3 | 516 | 9.296923e+02 | 9.170000e+02 |   1.38%| unknown
  3.1s|   300 |   283 |  6951 |  21.8 |    36M |  43 | 600 | 149 | 154 | 225 |  1 |  26 | 686 | 9.296923e+02 | 9.170000e+02 |   1.38%| unknown
  3.5s|   400 |   365 |  7682 |  18.2 |    39M |  57 | 600 | 177 | 156 | 264 |  2 |  54 | 803 | 9.296923e+02 | 9.170000e+02 |   1.38%| unknown
  4.3s|   500 |   457 |  9374 |  17.9 |    39M |  57 | 600 | 183 | 160 | 331 |  1 |  60 | 919 | 9.296923e+02 | 9.170000e+02 |   1.38%| unknown
  4.8s|   600 |   549 |  9970 |  15.9 |    40M |  73 | 600 | 193 | 162 | 370 |  1 |  70 |1021 | 9.296923e+02 | 9.170000e+02 |   1.38%| unknown
  5.3s|   700 |   647 | 10701 |  14.7 |    41M |  73 | 600 | 199 | 156 | 417 |  1 |  76 |1070 | 9.296923e+02 | 9.170000e+02 |   1.38%| unknown
  6.1s|   800 |   743 | 11736 |  14.2 |    42M |  73 | 600 | 205 | 158 | 487 |  1 |  82 |1124 | 9.296923e+02 | 9.170000e+02 |   1.38%| unknown
  6.5s|   900 |   843 | 12408 |  13.3 |    42M |  73 | 600 | 211 | 167 | 542 |  2 |  88 |1146 | 9.296923e+02 | 9.170000e+02 |   1.38%| unknown
  7.0s|  1000 |   937 | 13348 |  12.9 |    43M |  73 | 600 | 257 | 154 | 606 |  1 | 134 |1170 | 9.296923e+02 | 9.170000e+02 |   1.38%| unknown
  7.3s|  1100 |  1037 | 14075 |  12.4 |    44M |  73 | 600 | 259 | 155 | 628 |  1 | 136 |1191 | 9.296923e+02 | 9.170000e+02 |   1.38%| unknown
  7.9s|  1200 |  1127 | 14797 |  12.0 |    44M |  73 | 600 | 261 | 161 | 686 |  1 | 138 |1204 | 9.296923e+02 | 9.170000e+02 |   1.38%| unknown
  8.1s|  1300 |  1211 | 15420 |  11.5 |    45M |  73 | 600 | 296 | 159 | 713 |  0 | 173 |1209 | 9.296923e+02 | 9.170000e+02 |   1.38%| unknown
  8.4s|  1400 |  1309 | 16087 |  11.2 |    44M |  73 | 600 | 297 | 162 | 738 |  1 | 174 |1218 | 9.296923e+02 | 9.170000e+02 |   1.38%| unknown
r 8.5s|  1432 |   822 | 16249 |  11.1 |ziroundi|  73 | 600 | 297 | 165 | 742 |  1 | 174 |1225 | 9.296923e+02 | 9.250000e+02 |   0.51%| unknown
Restart triggered after 50 consecutive estimations that the remaining tree will be large
(run 1, node 1481) performing user restart

(restart) converted 8 cuts from the global cut pool into linear constraints

presolving:
(round 1, fast)       198 del vars, 33 del conss, 0 add conss, 0 chg bounds, 0 chg sides, 2337 chg coeffs, 0 upgd conss, 0 impls, 67 clqs
(round 2, medium)     198 del vars, 39 del conss, 0 add conss, 0 chg bounds, 0 chg sides, 2337 chg coeffs, 0 upgd conss, 0 impls, 67 clqs
(round 3, exhaustive) 198 del vars, 39 del conss, 0 add conss, 0 chg bounds, 0 chg sides, 2337 chg coeffs, 8 upgd conss, 0 impls, 67 clqs
(round 4, exhaustive) 198 del vars, 40 del conss, 0 add conss, 0 chg bounds, 0 chg sides, 2347 chg coeffs, 8 upgd conss, 0 impls, 67 clqs
presolving (5 rounds: 5 fast, 4 medium, 3 exhaustive):
 198 deleted vars, 40 deleted constraints, 0 added constraints, 0 tightened bounds, 0 added holes, 0 changed sides, 2347 changed coefficients
 0 implications, 67 cliques
presolved problem has 402 variables (402 bin, 0 int, 0 impl, 0 cont) and 265 constraints
     14 constraints of type <knapsack>
     67 constraints of type <setppc>
     11 constraints of type <orbitope>
    173 constraints of type <logicor>
transformed objective value is always integral (scale: 1)
Presolving Time: 0.05
transformed 93/100 original solutions to the transformed problem space

 time | node  | left  |LP iter|LP it/n|mem/heur|mdpt |vars |cons |rows |cuts |sepa|confs|strbr|  dualbound   | primalbound  |  gap   | compl. 
  8.6s|     1 |     0 | 16727 |     - |    45M |   0 | 402 | 265 |  81 |   0 |  0 | 174 |1227 | 9.296923e+02 | 9.250000e+02 |   0.51%| unknown
  8.7s|     1 |     0 | 16752 |     - |    45M |   0 | 402 | 265 |  87 |   6 |  1 | 174 |1227 | 9.296923e+02 | 9.250000e+02 |   0.51%| unknown
  8.7s|     1 |     0 | 16762 |     - |    45M |   0 | 402 | 265 |  93 |  12 |  2 | 174 |1227 | 9.296923e+02 | 9.250000e+02 |   0.51%| unknown
  8.7s|     1 |     0 | 16777 |     - |    45M |   0 | 402 | 265 |  99 |  18 |  3 | 174 |1227 | 9.296923e+02 | 9.250000e+02 |   0.51%| unknown
  8.7s|     1 |     0 | 16793 |     - |    45M |   0 | 402 | 265 | 105 |  24 |  4 | 174 |1227 | 9.296923e+02 | 9.250000e+02 |   0.51%| unknown
  8.7s|     1 |     0 | 16799 |     - |    45M |   0 | 402 | 265 | 110 |  29 |  5 | 174 |1227 | 9.296923e+02 | 9.250000e+02 |   0.51%| unknown
  8.8s|     1 |     0 | 16808 |     - |    45M |   0 | 402 | 265 | 115 |  34 |  6 | 174 |1227 | 9.296923e+02 | 9.250000e+02 |   0.51%| unknown
  8.8s|     1 |     0 | 16825 |     - |    45M |   0 | 402 | 265 | 116 |  35 |  7 | 174 |1227 | 9.296923e+02 | 9.250000e+02 |   0.51%| unknown
  8.8s|     1 |     0 | 16837 |     - |    45M |   0 | 402 | 265 | 122 |  41 |  8 | 174 |1227 | 9.296923e+02 | 9.250000e+02 |   0.51%| unknown
  8.9s|     1 |     0 | 16846 |     - |    45M |   0 | 402 | 265 | 126 |  45 |  9 | 174 |1227 | 9.296923e+02 | 9.250000e+02 |   0.51%| unknown
  8.9s|     1 |     0 | 16856 |     - |    45M |   0 | 402 | 265 | 132 |  51 | 10 | 174 |1227 | 9.296923e+02 | 9.250000e+02 |   0.51%| unknown
  8.9s|     1 |     0 | 16873 |     - |    45M |   0 | 402 | 265 | 125 |  55 | 11 | 174 |1227 | 9.296923e+02 | 9.250000e+02 |   0.51%| unknown
  9.0s|     1 |     2 | 17212 |     - |    45M |   0 | 402 | 327 | 125 |  55 | 11 | 236 |1247 | 9.296923e+02 | 9.250000e+02 |   0.51%| unknown
  9.6s|   100 |    93 | 18219 |  11.1 |    48M |  51 | 402 | 404 | 113 | 120 |  3 | 313 |1500 | 9.296923e+02 | 9.250000e+02 |   0.51%| unknown
* 9.7s|   124 |    77 | 18325 |  11.0 |strongbr|  57 | 402 | 434 | 112 | 121 |  4 | 343 |1574 | 9.296923e+02 | 9.280000e+02 |   0.18%| unknown
 time | node  | left  |LP iter|LP it/n|mem/heur|mdpt |vars |cons |rows |cuts |sepa|confs|strbr|  dualbound   | primalbound  |  gap   | compl. 
 10.2s|   200 |   112 | 19138 |  10.9 |    51M |  61 | 402 | 561 | 115 | 182 |  1 | 479 |1746 | 9.296923e+02 | 9.280000e+02 |   0.18%| unknown
r10.6s|   234 |   134 | 19383 |  10.9 |randroun|  61 | 402 | 571 | 145 | 237 |  6 | 489 |1853 | 9.296923e+02 | 9.280000e+02 |   0.18%| unknown
 11.3s|   300 |   192 | 21518 |  11.7 |    56M |  61 | 402 | 646 | 118 | 338 |  1 | 564 |1903 | 9.296923e+02 | 9.280000e+02 |   0.18%| unknown
 12.1s|   400 |   278 | 22984 |  11.8 |    61M |  61 | 402 | 710 | 110 | 427 |  1 | 628 |1906 | 9.296923e+02 | 9.280000e+02 |   0.18%| unknown
 12.4s|   500 |   350 | 23721 |  11.6 |    62M |  61 | 402 | 738 | 108 | 454 |  1 | 656 |1906 | 9.296923e+02 | 9.280000e+02 |   0.18%| unknown
 12.9s|   600 |   420 | 24716 |  11.5 |    62M |  61 | 402 | 872 | 114 | 482 |  1 | 790 |1950 | 9.296923e+02 | 9.280000e+02 |   0.18%|  10.08%
 13.3s|   700 |   480 | 25434 |  11.3 |    62M |  61 | 402 | 929 | 113 | 502 |  1 | 847 |1988 | 9.296923e+02 | 9.280000e+02 |   0.18%|  10.86%
 13.8s|   800 |   548 | 26046 |  11.1 |    62M |  61 | 402 |1007 | 109 | 545 |  2 | 927 |2074 | 9.296923e+02 | 9.280000e+02 |   0.18%|  10.86%
 14.0s|   900 |   622 | 27059 |  11.1 |    62M |  61 | 402 |1091 | 108 | 573 |  1 |1014 |2118 | 9.296923e+02 | 9.280000e+02 |   0.18%|  10.86%
 14.4s|  1000 |   694 | 28057 |  11.0 |    60M |  61 | 402 |1175 | 110 | 641 |  1 |1100 |2154 | 9.296923e+02 | 9.280000e+02 |   0.18%|  10.86%
 14.7s|  1100 |   759 | 28961 |  10.9 |    60M |  61 | 402 |1210 | 108 | 670 |  1 |1139 |2177 | 9.296923e+02 | 9.280000e+02 |   0.18%|  10.86%
 15.0s|  1200 |   823 | 29575 |  10.8 |    58M |  65 | 402 |1296 | 118 | 706 |  1 |1228 |2212 | 9.296923e+02 | 9.280000e+02 |   0.18%|  10.86%
 15.3s|  1300 |   885 | 30314 |  10.6 |    58M |  65 | 402 |1349 | 111 | 728 |  1 |1285 |2226 | 9.296923e+02 | 9.280000e+02 |   0.18%|  10.86%
 15.5s|  1400 |   943 | 30833 |  10.4 |    58M |  65 | 402 |1412 | 111 | 739 |  1 |1355 |2242 | 9.296923e+02 | 9.280000e+02 |   0.18%|  11.63%
 16.0s|  1500 |  1007 | 31670 |  10.4 |    58M |  65 | 402 |1439 | 108 | 762 |  2 |1399 |2242 | 9.296923e+02 | 9.280000e+02 |   0.18%|  13.18%
 time | node  | left  |LP iter|LP it/n|mem/heur|mdpt |vars |cons |rows |cuts |sepa|confs|strbr|  dualbound   | primalbound  |  gap   | compl. 
 16.4s|  1600 |  1091 | 32651 |  10.4 |    58M |  65 | 402 |1494 | 109 | 792 |  1 |1463 |2271 | 9.296923e+02 | 9.280000e+02 |   0.18%|  13.18%
 16.8s|  1700 |  1163 | 33693 |  10.4 |    58M |  65 | 402 |1581 | 112 | 837 |  1 |1566 |2293 | 9.296923e+02 | 9.280000e+02 |   0.18%|  13.18%
 17.2s|  1800 |  1221 | 34412 |  10.3 |    58M |  65 | 402 |1650 | 118 | 884 |  1 |1649 |2318 | 9.296923e+02 | 9.280000e+02 |   0.18%|  13.95%
 17.4s|  1900 |  1289 | 34990 |  10.1 |    58M |  67 | 402 |1717 | 118 | 888 |  0 |1732 |2331 | 9.296923e+02 | 9.280000e+02 |   0.18%|  13.95%
 18.0s|  2000 |  1353 | 35770 |  10.1 |    60M |  67 | 402 |1770 | 113 | 935 |  1 |1825 |2347 | 9.296923e+02 | 9.280000e+02 |   0.18%|  13.95%
 18.4s|  2100 |  1421 | 36779 |  10.1 |    60M |  69 | 402 |1820 | 115 | 973 |  0 |1904 |2357 | 9.296923e+02 | 9.280000e+02 |   0.18%|  13.95%
 18.6s|  2200 |  1497 | 37496 |  10.0 |    60M |  69 | 402 |1841 | 104 | 993 |  1 |1957 |2362 | 9.296923e+02 | 9.280000e+02 |   0.18%|  13.95%
 19.1s|  2300 |  1587 | 39435 |  10.2 |    60M |  69 | 402 |1913 | 110 |1030 |  1 |2069 |2367 | 9.296923e+02 | 9.280000e+02 |   0.18%|  13.95%
 19.7s|  2400 |  1671 | 40576 |  10.3 |    61M |  69 | 402 |1970 | 112 |1074 |  1 |2193 |2373 | 9.296923e+02 | 9.280000e+02 |   0.18%|  13.96%
 19.9s|  2500 |  1731 | 41168 |  10.2 |    61M |  69 | 402 |2003 | 113 |1101 |  1 |2243 |2377 | 9.296923e+02 | 9.280000e+02 |   0.18%|  13.96%
 20.0s|  2600 |  1764 | 41537 |  10.0 |    61M |  75 | 402 |2040 | 117 |1117 |  1 |2304 |2385 | 9.296923e+02 | 9.280000e+02 |   0.18%|  13.96%
 20.1s|  2700 |  1780 | 41730 |   9.8 |    61M |  80 | 402 |2062 | 115 |1118 |  1 |2329 |2391 | 9.296923e+02 | 9.280000e+02 |   0.18%|  13.96%
 20.5s|  2800 |  1853 | 42976 |   9.9 |    61M |  80 | 402 |2140 | 111 |1143 |  1 |2465 |2393 | 9.296923e+02 | 9.280000e+02 |   0.18%|  14.54%
 20.9s|  2900 |  1928 | 43496 |   9.8 |    62M |  80 | 402 |2126 | 112 |1165 |  1 |2494 |2395 | 9.296923e+02 | 9.280000e+02 |   0.18%|  14.54%
 21.1s|  3000 |  2008 | 44251 |   9.7 |    62M |  80 | 402 |2161 | 110 |1176 |  1 |2569 |2406 | 9.296923e+02 | 9.280000e+02 |   0.18%|  14.54%
 time | node  | left  |LP iter|LP it/n|mem/heur|mdpt |vars |cons |rows |cuts |sepa|confs|strbr|  dualbound   | primalbound  |  gap   | compl. 
 21.2s|  3100 |  2058 | 44890 |   9.6 |    62M |  80 | 402 |2143 | 110 |1202 |  1 |2597 |2417 | 9.296923e+02 | 9.280000e+02 |   0.18%|  14.54%
 21.4s|  3200 |  2120 | 45335 |   9.5 |    62M |  80 | 402 |2135 |   0 |1216 |  0 |2628 |2419 | 9.296923e+02 | 9.280000e+02 |   0.18%|  14.54%
 21.5s|  3300 |  2149 | 45779 |   9.4 |    62M |  80 | 402 |2172 | 117 |1220 |  0 |2683 |2421 | 9.296923e+02 | 9.280000e+02 |   0.18%|  14.54%
 21.6s|  3400 |  2185 | 46202 |   9.3 |    62M |  80 | 402 |2154 | 117 |1228 |  1 |2693 |2424 | 9.296923e+02 | 9.280000e+02 |   0.18%|  14.54%
 21.6s|  3500 |  2211 | 46560 |   9.2 |    62M |  80 | 402 |2158 | 117 |1228 |  0 |2706 |2424 | 9.296923e+02 | 9.280000e+02 |   0.18%|  14.54%
 21.7s|  3600 |  2241 | 46850 |   9.1 |    62M |  81 | 402 |2162 | 118 |1229 |  1 |2719 |2424 | 9.296923e+02 | 9.280000e+02 |   0.18%|  14.54%
 21.8s|  3700 |  2263 | 47089 |   8.9 |    62M |  82 | 402 |2185 | 117 |1231 |  2 |2744 |2426 | 9.296923e+02 | 9.280000e+02 |   0.18%|  14.54%
 21.9s|  3800 |  2309 | 47526 |   8.9 |    62M |  82 | 402 |2189 | 116 |1250 |  1 |2763 |2427 | 9.296923e+02 | 9.280000e+02 |   0.18%|  14.54%
 22.0s|  3900 |  2334 | 48142 |   8.8 |    62M |  82 | 402 |2156 | 117 |1272 |  1 |2782 |2430 | 9.296923e+02 | 9.280000e+02 |   0.18%|  14.54%
 22.1s|  4000 |  2370 | 48571 |   8.7 |    62M |  82 | 402 |2131 | 117 |1275 |  1 |2797 |2430 | 9.296923e+02 | 9.280000e+02 |   0.18%|  14.54%
 22.2s|  4100 |  2414 | 49148 |   8.7 |    62M |  82 | 402 |2099 | 111 |1285 |  1 |2853 |2430 | 9.296923e+02 | 9.280000e+02 |   0.18%|  14.54%
 22.2s|  4200 |  2447 | 49545 |   8.6 |    62M |  82 | 402 |2095 |   0 |1294 |  0 |2876 |2433 | 9.296923e+02 | 9.280000e+02 |   0.18%|  14.54%
 22.4s|  4300 |  2480 | 50058 |   8.5 |    62M |  82 | 402 |2066 | 117 |1307 |  0 |2905 |2443 | 9.296923e+02 | 9.280000e+02 |   0.18%|  15.31%
 22.5s|  4400 |  2508 | 50442 |   8.5 |    62M |  82 | 402 |2050 | 111 |1312 |  1 |2942 |2446 | 9.296923e+02 | 9.280000e+02 |   0.18%|  15.31%
 22.8s|  4500 |  2556 | 51122 |   8.4 |    62M |  82 | 402 |2011 | 115 |1366 |  0 |2969 |2458 | 9.296923e+02 | 9.280000e+02 |   0.18%|  15.31%
 time | node  | left  |LP iter|LP it/n|mem/heur|mdpt |vars |cons |rows |cuts |sepa|confs|strbr|  dualbound   | primalbound  |  gap   | compl. 
 23.0s|  4600 |  2612 | 51719 |   8.4 |    63M |  82 | 402 |1973 | 114 |1395 |  1 |3037 |2463 | 9.296923e+02 | 9.280000e+02 |   0.18%|  15.31%
 23.2s|  4700 |  2648 | 52131 |   8.3 |    63M |  82 | 402 |1924 | 108 |1425 |  1 |3051 |2469 | 9.296923e+02 | 9.280000e+02 |   0.18%|  15.31%
 23.5s|  4800 |  2702 | 52956 |   8.3 |    64M |  82 | 402 |1970 |   0 |1475 |  0 |3132 |2474 | 9.296923e+02 | 9.280000e+02 |   0.18%|  15.31%
 23.8s|  4900 |  2750 | 53412 |   8.3 |    66M |  82 | 402 |1951 | 121 |1516 |  2 |3149 |2479 | 9.296923e+02 | 9.280000e+02 |   0.18%|  15.31%
 24.0s|  5000 |  2778 | 53742 |   8.2 |    67M |  92 | 402 |1974 | 119 |1528 |  1 |3178 |2494 | 9.296923e+02 | 9.280000e+02 |   0.18%|  15.31%
 24.1s|  5100 |  2810 | 54098 |   8.1 |    67M |  93 | 402 |1962 | 117 |1544 |  1 |3199 |2497 | 9.296923e+02 | 9.280000e+02 |   0.18%|  15.31%
 24.2s|  5200 |  2834 | 54322 |   8.0 |    67M |  93 | 402 |2012 | 118 |1547 |  0 |3254 |2501 | 9.296923e+02 | 9.280000e+02 |   0.18%|  15.31%
 24.3s|  5300 |  2864 | 54614 |   7.9 |    67M |  93 | 402 |1999 |   0 |1566 |  0 |3265 |2505 | 9.296923e+02 | 9.280000e+02 |   0.18%|  15.31%
 24.4s|  5400 |  2900 | 54885 |   7.9 |    67M |  93 | 402 |2002 | 119 |1570 |  0 |3275 |2507 | 9.296923e+02 | 9.280000e+02 |   0.18%|  15.31%
 24.5s|  5500 |  2922 | 55215 |   7.8 |    67M |  93 | 402 |2013 | 118 |1577 |  1 |3290 |2513 | 9.296923e+02 | 9.280000e+02 |   0.18%|  15.31%
 24.6s|  5600 |  2948 | 55531 |   7.7 |    67M |  93 | 402 |2026 | 119 |1580 |  1 |3311 |2516 | 9.296923e+02 | 9.280000e+02 |   0.18%|  15.31%
 24.6s|  5700 |  2966 | 55816 |   7.7 |    67M |  93 | 402 |2061 | 118 |1588 |  1 |3360 |2518 | 9.296923e+02 | 9.280000e+02 |   0.18%|  15.31%
 24.7s|  5800 |  2982 | 56067 |   7.6 |    67M |  93 | 402 |2053 | 119 |1590 |  0 |3366 |2519 | 9.296923e+02 | 9.280000e+02 |   0.18%|  15.31%
 24.8s|  5900 |  3018 | 56399 |   7.5 |    68M |  93 | 402 |1997 | 118 |1599 |  1 |3392 |2521 | 9.296923e+02 | 9.280000e+02 |   0.18%|  15.31%
 24.9s|  6000 |  3060 | 56688 |   7.5 |    68M |  93 | 402 |1988 | 117 |1614 |  1 |3426 |2522 | 9.296923e+02 | 9.280000e+02 |   0.18%|  15.31%
 time | node  | left  |LP iter|LP it/n|mem/heur|mdpt |vars |cons |rows |cuts |sepa|confs|strbr|  dualbound   | primalbound  |  gap   | compl. 
 25.0s|  6100 |  3100 | 57036 |   7.4 |    68M |  93 | 402 |1955 | 106 |1624 |  1 |3447 |2524 | 9.296923e+02 | 9.280000e+02 |   0.18%|  15.31%
 25.1s|  6200 |  3168 | 57469 |   7.4 |    68M |  93 | 402 |1946 | 112 |1635 |  1 |3479 |2529 | 9.296923e+02 | 9.280000e+02 |   0.18%|  15.31%
 25.3s|  6300 |  3181 | 57688 |   7.3 |    68M |  93 | 402 |1964 | 113 |1671 |  1 |3506 |2529 | 9.296923e+02 | 9.280000e+02 |   0.18%|  15.31%
 25.4s|  6400 |  3241 | 58114 |   7.3 |    68M |  93 | 402 |1963 | 113 |1689 |  1 |3535 |2533 | 9.296923e+02 | 9.280000e+02 |   0.18%|  15.31%
 25.5s|  6500 |  3263 | 58420 |   7.2 |    68M |  93 | 402 |1992 | 111 |1695 |  1 |3566 |2534 | 9.296923e+02 | 9.280000e+02 |   0.18%|  15.31%
 25.6s|  6600 |  3317 | 58809 |   7.2 |    68M |  93 | 402 |1969 | 112 |1715 |  1 |3615 |2537 | 9.296923e+02 | 9.280000e+02 |   0.18%|  15.31%
 25.8s|  6700 |  3396 | 59577 |   7.2 |    68M |  93 | 402 |1968 | 113 |1748 |  1 |3713 |2539 | 9.296923e+02 | 9.280000e+02 |   0.18%|  15.31%
 26.1s|  6800 |  3445 | 60115 |   7.2 |    68M |  93 | 402 |1920 | 113 |1783 |  1 |3749 |2545 | 9.296923e+02 | 9.280000e+02 |   0.18%|  15.31%
 26.1s|  6900 |  3476 | 60452 |   7.1 |    69M |  93 | 402 |1914 | 114 |1790 |  1 |3753 |2548 | 9.296923e+02 | 9.280000e+02 |   0.18%|  15.31%
*26.1s|  6923 |     0 | 60506 |   7.1 |    LP  |  93 | 402 |1915 | 114 |1790 |  1 |3755 |2548 | 9.290000e+02 | 9.290000e+02 |   0.00%| 100.00%

SCIP Status        : problem is solved [optimal solution found]
Solving Time (sec) : 26.15
Solving Nodes      : 6923 (total of 8404 nodes in 2 runs)
Primal Bound       : +9.29000000000000e+02 (691 solutions)
Dual Bound         : +9.29000000000000e+02
Gap                : 0.00 %
Solve Status: optimal
Solve Time: 26.15 seconds
